44
0 1
C          2.85548        2.99905        5.25456
C          3.67076        3.74641        4.40600
C          3.57298        3.61109        3.01184
C          2.64521        2.71685        2.51263
C          1.82487        1.96520        3.36475
C          1.91593        2.09267        4.73947
C          2.31534        2.36307        1.09740
C          1.25132        1.35846        1.14780
C          0.92748        1.09075        2.54765
C          0.69385        0.79690       -0.01711
C         -0.32852       -0.16433        0.03218
C         -1.72408       -0.05288        0.04147
N         -2.48354        1.08998        0.07706
C         -3.83294        0.79155        0.02372
C         -3.99872       -0.60492       -0.03095
C         -2.64213       -1.26488       -0.00933
C         -4.93151        1.66116        0.01867
C         -6.19809        1.09279       -0.03936
C         -6.37341       -0.29560       -0.09159
C         -5.26761       -1.15177       -0.08782
C         -1.97612        2.44184        0.18731
C         -2.46825       -2.14699        1.24226
C         -2.40190       -2.10160       -1.27948
O          0.09484        0.31280        3.01019
O          2.84127        2.83026        0.09643
H          2.95069        3.12217        6.33553
H          4.39359        4.44494        4.83266
H          4.20660        4.19137        2.33843
H          1.27385        1.50375        5.39699
H          1.11672        1.15777       -0.95285
H          0.02929       -1.19633        0.05126
H         -4.81341        2.74362        0.05344
H         -7.07295        1.74564       -0.04600
H         -7.38152       -0.71120       -0.13630
H         -5.40747       -2.23403       -0.12873
H         -1.47312        2.74873       -0.74093
H         -2.80730        3.12605        0.37793
H         -1.26992        2.51341        1.02323
H         -1.45667       -2.57621        1.27627
H         -3.19123       -2.97571        1.21955
H         -2.63321       -1.56698        2.16082
H         -2.51486       -1.48833       -2.18428
H         -1.39102       -2.53361       -1.27413
H         -3.12608       -2.92807       -1.32687
