44
0 1
C          6.48895       -1.13382        0.02347
C          6.76068        0.23229       -0.03312
C          5.71785        1.17197       -0.06552
C          4.41990        0.69843       -0.03881
C          4.14554       -0.67471        0.01837
C          5.16782       -1.60657        0.04993
C          3.12358        1.44404       -0.06035
C          2.05672        0.44235       -0.01203
C          2.66476       -0.88585        0.03596
C          0.69385        0.79690       -0.01711
C         -0.32852       -0.16433        0.03218
C         -1.72408       -0.05288        0.04147
N         -2.48354        1.08998        0.07706
C         -3.83294        0.79155        0.02372
C         -3.99872       -0.60492       -0.03095
C         -2.64213       -1.26488       -0.00933
C         -4.93151        1.66116        0.01867
C         -6.19809        1.09279       -0.03936
C         -6.37341       -0.29560       -0.09159
C         -5.26761       -1.15177       -0.08782
C         -1.97612        2.44184        0.18731
C         -2.46825       -2.14699        1.24226
C         -2.40190       -2.10160       -1.27948
O          2.11311       -1.98405        0.08153
O          2.99199        2.65940       -0.10949
H          7.31752       -1.84489        0.04763
H          7.79776        0.57371       -0.05248
H          5.91955        2.24389       -0.10996
H          4.94654       -2.67451        0.09421
H          0.49390        1.86560       -0.06764
H          0.02929       -1.19633        0.05126
H         -4.81341        2.74362        0.05344
H         -7.07295        1.74564       -0.04600
H         -7.38152       -0.71120       -0.13630
H         -5.40747       -2.23403       -0.12873
H         -1.47312        2.74873       -0.74093
H         -2.80730        3.12605        0.37793
H         -1.26992        2.51341        1.02323
H         -1.45667       -2.57621        1.27627
H         -3.19123       -2.97571        1.21955
H         -2.63321       -1.56698        2.16082
H         -2.51486       -1.48833       -2.18428
H         -1.39102       -2.53361       -1.27413
H         -3.12608       -2.92807       -1.32687
